c colouring generated by benchmark framework
p edge 500 112437
v 1 18
v 2 161
v 3 176
v 4 95
v 5 89
v 6 112
v 7 139
v 8 22
v 9 16
v 10 6
v 11 93
v 12 174
v 13 123
v 14 62
v 15 143
v 16 90
v 17 135
v 18 61
v 19 136
v 20 42
v 21 3
v 22 188
v 23 55
v 24 125
v 25 60
v 26 54
v 27 110
v 28 107
v 29 38
v 30 59
v 31 33
v 32 16
v 33 161
v 34 52
v 35 41
v 36 0
v 37 19
v 38 181
v 39 170
v 40 47
v 41 27
v 42 122
v 43 127
v 44 143
v 45 121
v 46 33
v 47 133
v 48 68
v 49 44
v 50 63
v 51 15
v 52 22
v 53 147
v 54 60
v 55 4
v 56 58
v 57 131
v 58 158
v 59 108
v 60 91
v 61 148
v 62 21
v 63 129
v 64 44
v 65 180
v 66 109
v 67 110
v 68 124
v 69 51
v 70 26
v 71 150
v 72 11
v 73 46
v 74 75
v 75 92
v 76 140
v 77 170
v 78 72
v 79 24
v 80 7
v 81 186
v 82 4
v 83 108
v 84 14
v 85 83
v 86 84
v 87 50
v 88 83
v 89 28
v 90 39
v 91 42
v 92 139
v 93 61
v 94 79
v 95 71
v 96 29
v 97 22
v 98 164
v 99 121
v 100 3
v 101 101
v 102 8
v 103 12
v 104 88
v 105 40
v 106 153
v 107 52
v 108 20
v 109 64
v 110 66
v 111 25
v 112 103
v 113 139
v 114 158
v 115 37
v 116 77
v 117 142
v 118 94
v 119 132
v 120 56
v 121 36
v 122 70
v 123 20
v 124 116
v 125 152
v 126 29
v 127 31
v 128 46
v 129 58
v 130 50
v 131 168
v 132 41
v 133 141
v 134 52
v 135 5
v 136 65
v 137 72
v 138 30
v 139 92
v 140 15
v 141 45
v 142 145
v 143 116
v 144 153
v 145 190
v 146 78
v 147 23
v 148 110
v 149 59
v 150 98
v 151 79
v 152 2
v 153 86
v 154 104
v 155 29
v 156 168
v 157 23
v 158 80
v 159 26
v 160 48
v 161 160
v 162 40
v 163 124
v 164 9
v 165 55
v 166 118
v 167 56
v 168 87
v 169 73
v 170 99
v 171 61
v 172 107
v 173 32
v 174 177
v 175 96
v 176 2
v 177 172
v 178 87
v 179 37
v 180 142
v 181 179
v 182 74
v 183 101
v 184 42
v 185 57
v 186 38
v 187 93
v 188 162
v 189 26
v 190 4
v 191 27
v 192 81
v 193 80
v 194 41
v 195 72
v 196 105
v 197 40
v 198 115
v 199 130
v 200 117
v 201 29
v 202 126
v 203 34
v 204 184
v 205 13
v 206 23
v 207 25
v 208 24
v 209 78
v 210 28
v 211 86
v 212 127
v 213 126
v 214 128
v 215 9
v 216 17
v 217 7
v 218 185
v 219 2
v 220 34
v 221 100
v 222 77
v 223 125
v 224 85
v 225 88
v 226 7
v 227 17
v 228 68
v 229 14
v 230 23
v 231 63
v 232 68
v 233 69
v 234 155
v 235 116
v 236 189
v 237 38
v 238 46
v 239 32
v 240 166
v 241 3
v 242 32
v 243 90
v 244 119
v 245 113
v 246 51
v 247 111
v 248 136
v 249 82
v 250 134
v 251 76
v 252 60
v 253 114
v 254 99
v 255 106
v 256 151
v 257 10
v 258 106
v 259 30
v 260 77
v 261 67
v 262 31
v 263 94
v 264 120
v 265 1
v 266 178
v 267 53
v 268 1
v 269 81
v 270 146
v 271 73
v 272 136
v 273 131
v 274 154
v 275 49
v 276 165
v 277 6
v 278 137
v 279 51
v 280 94
v 281 144
v 282 102
v 283 95
v 284 6
v 285 15
v 286 8
v 287 97
v 288 11
v 289 35
v 290 9
v 291 55
v 292 132
v 293 65
v 294 5
v 295 156
v 296 62
v 297 149
v 298 36
v 299 102
v 300 71
v 301 122
v 302 91
v 303 160
v 304 163
v 305 49
v 306 150
v 307 105
v 308 13
v 309 100
v 310 120
v 311 40
v 312 119
v 313 175
v 314 182
v 315 120
v 316 105
v 317 183
v 318 12
v 319 156
v 320 187
v 321 63
v 322 59
v 323 119
v 324 136
v 325 140
v 326 104
v 327 62
v 328 57
v 329 92
v 330 72
v 331 107
v 332 64
v 333 187
v 334 0
v 335 102
v 336 118
v 337 98
v 338 84
v 339 85
v 340 25
v 341 76
v 342 19
v 343 169
v 344 79
v 345 43
v 346 18
v 347 43
v 348 70
v 349 21
v 350 12
v 351 30
v 352 134
v 353 33
v 354 166
v 355 167
v 356 76
v 357 59
v 358 91
v 359 129
v 360 41
v 361 137
v 362 85
v 363 83
v 364 167
v 365 108
v 366 133
v 367 0
v 368 56
v 369 57
v 370 74
v 371 138
v 372 167
v 373 89
v 374 65
v 375 47
v 376 141
v 377 18
v 378 21
v 379 93
v 380 117
v 381 28
v 382 177
v 383 66
v 384 158
v 385 35
v 386 52
v 387 18
v 388 1
v 389 45
v 390 115
v 391 159
v 392 27
v 393 54
v 394 24
v 395 149
v 396 58
v 397 118
v 398 71
v 399 74
v 400 60
v 401 171
v 402 169
v 403 37
v 404 101
v 405 89
v 406 47
v 407 96
v 408 13
v 409 69
v 410 146
v 411 80
v 412 115
v 413 16
v 414 50
v 415 123
v 416 112
v 417 24
v 418 145
v 419 157
v 420 78
v 421 144
v 422 31
v 423 157
v 424 111
v 425 134
v 426 103
v 427 173
v 428 82
v 429 34
v 430 158
v 431 106
v 432 8
v 433 80
v 434 49
v 435 33
v 436 14
v 437 96
v 438 87
v 439 143
v 440 48
v 441 5
v 442 155
v 443 147
v 444 10
v 445 171
v 446 124
v 447 130
v 448 57
v 449 155
v 450 13
v 451 138
v 452 144
v 453 64
v 454 81
v 455 48
v 456 142
v 457 45
v 458 73
v 459 19
v 460 26
v 461 82
v 462 98
v 463 53
v 464 88
v 465 66
v 466 103
v 467 48
v 468 128
v 469 138
v 470 114
v 471 135
v 472 75
v 473 67
v 474 148
v 475 20
v 476 117
v 477 132
v 478 100
v 479 154
v 480 39
v 481 97
v 482 152
v 483 149
v 484 69
v 485 128
v 486 10
v 487 53
v 488 36
v 489 113
v 490 104
v 491 151
v 492 25
v 493 11
v 494 99
v 495 90
v 496 39
v 497 17
v 498 97
v 499 109
v 500 54
